c generated by sgen
p cnf 41 92
-2 -3 -4 0
-1 -3 -4 0
-1 -2 -4 0
-1 -2 -3 0
-6 -7 -8 0
-5 -7 -8 0
-5 -6 -8 0
-5 -6 -7 0
-10 -11 -12 0
-9 -11 -12 0
-9 -10 -12 0
-9 -10 -11 0
-14 -15 -16 0
-13 -15 -16 0
-13 -14 -16 0
-13 -14 -15 0
-18 -19 -20 0
-17 -19 -20 0
-17 -18 -20 0
-17 -18 -19 0
-22 -23 -24 0
-21 -23 -24 0
-21 -22 -24 0
-21 -22 -23 0
-26 -27 -28 0
-25 -27 -28 0
-25 -26 -28 0
-25 -26 -27 0
-30 -31 -32 0
-29 -31 -32 0
-29 -30 -32 0
-29 -30 -31 0
-34 -35 -36 0
-33 -35 -36 0
-33 -34 -36 0
-33 -34 -35 0
-37 -38 -39 0
-37 -38 -40 0
-37 -38 -41 0
-37 -39 -40 0
-37 -39 -41 0
-37 -40 -41 0
-38 -39 -40 0
-38 -39 -41 0
-38 -40 -41 0
-39 -40 -41 0
22 6 29 0
28 6 29 0
28 22 29 0
28 22 6 0
16 41 18 0
27 41 18 0
27 16 18 0
27 16 41 0
19 36 39 0
32 36 39 0
32 19 39 0
32 19 36 0
35 8 2 0
13 8 2 0
13 35 2 0
13 35 8 0
24 25 33 0
10 25 33 0
10 24 33 0
10 24 25 0
37 9 5 0
20 9 5 0
20 37 5 0
20 37 9 0
17 4 21 0
31 4 21 0
31 17 21 0
31 17 4 0
7 38 15 0
23 38 15 0
23 7 15 0
23 7 38 0
11 1 14 0
30 1 14 0
30 11 14 0
30 11 1 0
26 12 3 0
26 12 40 0
26 12 34 0
26 3 40 0
26 3 34 0
26 40 34 0
12 3 40 0
12 3 34 0
12 40 34 0
3 40 34 0
